Minimize
  10 x_bananas + 8 x_mangoes
Subject To
  c1: 80 x_bananas + 100 x_mangoes >= 4000
  c2: 20 x_bananas + 15 x_mangoes >= 150
  c3: 0.67 x_mangoes - 0.33 x_bananas <= 0
Integer
  x_bananas x_mangoes
End